Route #1: 12 40 17 51 6 2 74 68 75
Route #2: 28 62 73 33 63 23 56 24 49 16
Route #3: 1 43 41 42 64 22 61 4 67
Route #4: 34 52 27 45 29 48 47 36 69 21
Route #5: 30 5 71 60 70 20 37 15 57 13 54
Route #6: 46 8 19 59 14 53 35 7
Route #7: 11 66 65 38 10 58 72 39
Route #8: 3 44 32 9 25 50 18 55 31
Route #9: 26
Cost 839
